
--- Job ChatPT_GAMS_code_v7_1t_FeMn_produced.gms Start 11/14/25 14:42:35 39.1.1 dbf03b78 WEX-WEI x86 64bit/MS Windows
--- Applying:
    C:\GAMS\39\gmsprmNT.txt
--- GAMS Parameters defined
    Input "C:\Users\Nicolas\OneDrive\Documents\NTNU Fall 2025\Semesteroppgave\Prosjektoppgave_dekarbonisering_i_Mo_industripark\ChatPT_GAMS_code_v7_1t_FeMn_produced.gms"
    PageSize 0
    ScrDir "C:\Users\Nicolas\OneDrive\Documents\NTNU Fall 2025\Semesteroppgave\Prosjektoppgave_dekarbonisering_i_Mo_industripark\225a\"
    SysDir C:\GAMS\39\
    LogOption 3
    ErrMsg 1
    ErrorLog 99
    IDE 1
    LstTitleLeftAligned 1
Licensee: Small MUD - 5 User License                     S240604|0002AP-GEN
          Norwegian University of Science and Technology             DC7530
          C:\Users\Nicolas\OneDrive\Documents\GAMS\gamslice.txt
          License Admin: Ruud Egging, ruud.egging@ntnu.no                  
Processor information: 1 socket(s), 4 core(s), and 8 thread(s) available
GAMS 39.1.1   Copyright (C) 1987-2022 GAMS Development. All rights reserved
--- Starting compilation
--- ChatPT_GAMS_code_v7_1t_FeMn_produced.gms(701) 3 Mb
--- Starting execution: elapsed 0:00:00.003
--- ChatPT_GAMS_code_v7_1t_FeMn_produced.gms(614) 4 Mb
--- Generating LP model FeMn_SiMn_Opt
--- ChatPT_GAMS_code_v7_1t_FeMn_produced.gms(619) 4 Mb
---   449 rows  506 columns  1,588 non-zeroes
--- Range statistics (absolute non-zero finite values)
--- RHS       [min, max] : [ 1.000E+00, 1.200E+05] - Zero values observed as well
--- Bound     [min, max] : [        NA,        NA] - Zero values observed as well
--- Matrix    [min, max] : [ 1.000E-02, 8.000E+03]
--- Executing CPLEX (Solvelink=2): elapsed 0:00:00.014

IBM ILOG CPLEX   39.1.1 dbf03b78 May 18, 2022          WEI x86 64bit/MS Window

--- GAMS/Cplex licensed for continuous and discrete problems.
--- GMO setup time: 0.00s
--- Space for names approximately 0.03 Mb
--- Use option 'names no' to turn use of names off
--- GMO memory 0.61 Mb (peak 0.61 Mb)
--- Dictionary memory 0.00 Mb
--- Cplex 22.1.0.0 link memory 0.01 Mb (peak 0.07 Mb)
--- Starting Cplex

Version identifier: 22.1.0.0 | 2022-03-09 | 1a383f8ce
CPXPARAM_Advance                                 0
CPXPARAM_Threads                                 1
CPXPARAM_MIP_Display                             4
CPXPARAM_MIP_Pool_Capacity                       0
CPXPARAM_MIP_Tolerances_AbsMIPGap                0
Tried aggregator 1 time.
LP Presolve eliminated 346 rows and 337 columns.
Aggregator did 75 substitutions.
Reduced LP has 27 rows, 94 columns, and 271 nonzeros.
Presolve time = 0.00 sec. (0.41 ticks)
Symmetry aggregator did 69 additional substitutions.
Initializing dual steep norms . . .

Iteration log . . .
Iteration:     1   Dual objective     =          2707.140000

Dual crossover.
  Dual:  Fixing 5 variables.
        4 DMoves:  Infeasibility  1.05686653e-12  Objective  3.98768571e+03
        0 DMoves:  Infeasibility  8.21071606e-13  Objective  3.98768571e+03
  Dual:  Pushed 0, exchanged 5.
  Primal:  Fixed no variables.

--- LP status (1): optimal.
--- Cplex Time: 0.00sec (det. 0.65 ticks)


Optimal solution found
Objective:         3987.685714

--- Reading solution for model FeMn_SiMn_Opt
--- Executing after solve: elapsed 0:00:00.049
--- ChatPT_GAMS_code_v7_1t_FeMn_produced.gms(663) 4 Mb
--- GDX File (execute_unload) C:\Users\Nicolas\OneDrive\Documents\NTNU Fall 2025\Semesteroppgave\Prosjektoppgave_dekarbonisering_i_Mo_industripark\output_test_3.gdx
--- ChatPT_GAMS_code_v7_1t_FeMn_produced.gms(701) 4 Mb
*** Status: Normal completion
--- Job ChatPT_GAMS_code_v7_1t_FeMn_produced.gms Stop 11/14/25 14:42:35 elapsed 0:00:00.049
